p cnf 18 40
-2 10 17 0
-2 10 3 -9 0
2 -10 0
2 -17 -3 0
2 -17 9 0
3 -11 -5 0
3 -11 13 -4 0
-3 11 0
-3 -13 5 0
-3 4 5 0
-4 15 16 0
-4 12 -16 0
-4 14 16 0
-4 -15 -16 0
4 -12 15 -16 0
4 -14 -15 16 0
-5 -16 7 0
-5 -6 7 0
-5 12 7 0
5 -7 0
5 -12 16 6 0
6 14 -15 0
6 -14 15 0
-6 -14 -15 0
-6 14 15 0
7 12 14 -8 0
7 -13 -14 -8 0
-7 8 0
-7 -12 14 0
-7 13 -14 0
8 15 -16 0
-8 -15 0
-8 16 0
-9 13 14 15 16 0
9 -16 0
9 -15 0
9 -13 0
9 -14 0
-18 0
2 0

